
Gurobi 7.5.1 (mac64, Java) logging started Wed Aug 16 14:34:02 2017

Academic license - for non-commercial use only

Gurobi 7.5.1 (mac64, Java) logging started Wed Aug 16 14:37:10 2017

Academic license - for non-commercial use only

Gurobi 7.5.1 (mac64, Java) logging started Wed Aug 16 14:42:08 2017

Academic license - for non-commercial use only

Gurobi 7.5.1 (mac64, Java) logging started Wed Aug 16 15:28:44 2017

Academic license - for non-commercial use only

Gurobi 7.5.1 (mac64, Java) logging started Wed Aug 16 16:38:54 2017

Academic license - for non-commercial use only

Gurobi 7.5.1 (mac64, Java) logging started Wed Aug 16 17:21:30 2017

Academic license - for non-commercial use only

Gurobi 7.5.1 (mac64, Java) logging started Wed Aug 16 17:41:34 2017

Academic license - for non-commercial use only

Gurobi 7.5.1 (mac64, Java) logging started Wed Aug 16 17:43:26 2017

Academic license - for non-commercial use only

Gurobi 7.5.1 (mac64, Java) logging started Wed Aug 16 17:43:58 2017

Academic license - for non-commercial use only

Gurobi 7.5.1 (mac64, Java) logging started Wed Aug 16 17:44:29 2017

Academic license - for non-commercial use only

Gurobi 7.5.1 (mac64, Java) logging started Wed Aug 16 17:46:06 2017

Academic license - for non-commercial use only

Gurobi 7.5.1 (mac64, Java) logging started Wed Aug 16 17:47:15 2017

Academic license - for non-commercial use only

Gurobi 7.5.1 (mac64, Java) logging started Wed Aug 16 17:49:19 2017

Academic license - for non-commercial use only

Gurobi 7.5.1 (mac64, Java) logging started Wed Aug 16 17:50:19 2017

Academic license - for non-commercial use only

Gurobi 7.5.1 (mac64, Java) logging started Wed Aug 16 17:50:48 2017

Academic license - for non-commercial use only

Gurobi 7.5.1 (mac64, Java) logging started Wed Aug 16 17:51:31 2017

Academic license - for non-commercial use only

Gurobi 7.5.1 (mac64, Java) logging started Wed Aug 16 17:51:55 2017

Academic license - for non-commercial use only

Gurobi 7.5.1 (mac64, Java) logging started Wed Aug 16 17:53:39 2017

Academic license - for non-commercial use only

Gurobi 7.5.1 (mac64, Java) logging started Wed Aug 16 17:57:10 2017

Academic license - for non-commercial use only

Gurobi 7.5.1 (mac64, Java) logging started Wed Aug 16 17:57:28 2017

Academic license - for non-commercial use only

Gurobi 7.5.1 (mac64, Java) logging started Wed Aug 16 17:57:38 2017

Academic license - for non-commercial use only

Gurobi 7.5.1 (mac64, Java) logging started Wed Aug 16 17:58:31 2017

Academic license - for non-commercial use only

Gurobi 7.5.1 (mac64, Java) logging started Wed Aug 16 17:59:08 2017

Academic license - for non-commercial use only

Gurobi 7.5.1 (mac64, Java) logging started Wed Aug 16 18:01:14 2017

Academic license - for non-commercial use only
